NAME : A-n37-k6
COMMENT : (Augerat et al, Min no of trucks: 6, Optimal value: 949)
TYPE : CVRP
DIMENSION : 37
EDGE_WEIGHT_TYPE : EUC_2D 
CAPACITY : 100
NODE_COORD_SECTION 
 1 86 22
 2 29 17
 3 4 50
 4 25 13
 5 67 37
 6 13 7
 7 62 15
 8 84 38
 9 34 3
 10 19 45
 11 42 76
 12 40 86
 13 25 94
 14 63 57
 15 75 24
 16 61 85
 17 87 38
 18 54 39
 19 66 34
 20 46 39
 21 47 17
 22 21 54
 23 19 83
 24 1 82
 25 94 28
 26 82 72
 27 41 59
 28 100 77
 29 1 57
 30 96 7
 31 57 82
 32 47 38
 33 68 89
 34 16 36
 35 51 38
 36 83 74
 37 84 2
DEMAND_SECTION 
1 0 
2 1 
3 23 
4 23 
5 5 
6 7 
7 18 
8 12 
9 20 
10 19 
11 19 
12 16 
13 2 
14 26 
15 13 
16 19 
17 17 
18 14 
19 8 
20 10 
21 5 
22 19 
23 12 
24 9 
25 18 
26 4 
27 20 
28 8 
29 3 
30 18 
31 26 
32 21 
33 21 
34 8 
35 19 
36 66 
37 21 
DEPOT_SECTION 
 1  
 -1  
EOF 
